(declare-const |main____CPAchecker_TMP_4':296:321:330:544:582| Int)
(declare-const |main____CPAchecker_TMP_3':295:322:331:545:583| Int)
(declare-const __VERIFIER_assert__cond___7 Int)
(declare-const |havoc:3:58:557| Int)
(declare-const |phi_main__t:349:452:560| Int)
(declare-const |phi___VERIFIER_assert__cond___12:346:455:563| Int)
(declare-const |main____CPAchecker_TMP_0___0':142:165:172:341:465:573| Int)
(declare-const |havoc:9:59:138:334:342:466:574| Int)
(declare-const __VERIFIER_assert__cond___16 Int)
(declare-const |phi___VERIFIER_assert__cond___4:281:292:554:592| Int)
(declare-const |__VERIFIER_assert__cond___4':298:319:328:542:580| Int)
(declare-const |havoc:25:61:294:556:594| Int)
(declare-const havoc Int)
(declare-const |__VERIFIER_assert__cond___15':143:161:168:337:461:569| Int)
(declare-const |main__t':140:160:167:336:460:568| Int)
(declare-const __VERIFIER_assert__cond___8 Int)
(declare-const |phi_main____CPAchecker_TMP_0___0:345:456:564| Int)
(declare-const |main____CPAchecker_TMP_0':141:162:169:338:462:570| Int)
(declare-const |phi_main____CPAchecker_TMP_6:280:293:555:593| Int)
(declare-const |phi_main____CPAchecker_TMP_0:348:453:561| Int)
(declare-const main____CPAchecker_TMP_6 Int)
(declare-const |phi___VERIFIER_assert__cond___4:274:279:288:550:588| Int)
(declare-const main____CPAchecker_TMP_4 Int)
(declare-const |phi___VERIFIER_assert__cond___11:347:454:562| Int)
(declare-const |__VERIFIER_assert__cond___8':300:316:325:539:577| Int)
(declare-const |phi_main____CPAchecker_TMP_4:283:290:552:590| Int)
(declare-const |phi___VERIFIER_assert__cond___16:343:458:566| Int)
(declare-const |phi_main__t:276:277:286:548:586| Int)
(declare-const __VERIFIER_assert__cond___3 Int)
(declare-const |phi___VERIFIER_assert__cond___15:344:457:565| Int)
(declare-const |phi___tmp_247_0:350:451:559| Int)
(declare-const |__tmp_383_0':139:163:170:339:463:571| Int)
(declare-const |main__t':140:317:326:540:578| Int)
(declare-const main____CPAchecker_TMP_3 Int)
(declare-const |phi___VERIFIER_assert__cond___3:275:278:287:549:587| Int)
(declare-const __VERIFIER_assert__cond___11 Int)
(declare-const |__VERIFIER_assert__cond___7':299:315:324:538:576| Int)
(declare-const |phi___VERIFIER_assert__cond___3:282:291:553:591| Int)
(declare-const __VERIFIER_assert__cond___12 Int)
(declare-const |K:313:314:323:537:575| Int)
(declare-const __tmp_383_0 Int)
(declare-const __VERIFIER_assert__cond___4 Int)
(declare-const |__VERIFIER_assert__cond___16':144:164:171:340:464:572| Int)
(declare-const main____CPAchecker_TMP_0___0 Int)
(declare-const __VERIFIER_assert__cond___15 Int)
(declare-const |havoc:31:62:285:547:585| Int)
(declare-const |K:158:159:166:335:459:567| Int)
(declare-const |phi___tmp_383_0:351:450:558| Int)
(declare-const |main____CPAchecker_TMP_6':301:318:327:541:579| Int)
(declare-const |phi_main__t:284:289:551:589| Int)
(declare-const |__VERIFIER_assert__cond___3':297:320:329:543:581| Int)
(declare-const |havoc:24:60:273:546:584| Int)
(assert (and (<= (+ (- havoc) 1) 0) (not (= (+ (- havoc) 1) 0))
               (or (and (not (= |havoc:3:58:557| 0))
                          (= (+ (- |phi___tmp_383_0:351:450:558|) __tmp_383_0) 0)
                          (= (+ (- |phi___tmp_247_0:350:451:559|)
                                  |havoc:3:58:557|) 0)
                          (= (- |phi_main__t:349:452:560|) 0)
                          (= (+ (- |phi_main____CPAchecker_TMP_0:348:453:561|)
                                  |havoc:3:58:557|) 0)
                          (= (+ (- |phi___VERIFIER_assert__cond___11:347:454:562|)
                                  __VERIFIER_assert__cond___11) 0)
                          (= (+ (- |phi___VERIFIER_assert__cond___12:346:455:563|)
                                  __VERIFIER_assert__cond___12) 0)
                          (= (+ (- |phi_main____CPAchecker_TMP_0___0:345:456:564|)
                                  main____CPAchecker_TMP_0___0) 0)
                          (= (+ (- |phi___VERIFIER_assert__cond___15:344:457:565|)
                                  __VERIFIER_assert__cond___15) 0)
                          (= (+ (- |phi___VERIFIER_assert__cond___16:343:458:566|)
                                  __VERIFIER_assert__cond___16) 0))
                     (and (= |havoc:3:58:557| 0)
                            (not (= (ite (<= (+ (- havoc) 1) 0) 1 0) 0))
                            (or (not (<= (- |K:158:159:166:335:459:567|) 0))
                                  (= (+ |main__t':140:160:167:336:460:568|
                                          (- |K:158:159:166:335:459:567|)) 0))
                            (or (not (and (<= (- |K:158:159:166:335:459:567|) 0)
                                            (<= |K:158:159:166:335:459:567| 0)))
                                  (= (+ |__VERIFIER_assert__cond___15':143:161:168:337:461:569|
                                          (- __VERIFIER_assert__cond___15)) 0))
                            (or (not (<= (+ (- |K:158:159:166:335:459:567|) 1) 0))
                                  (= (+ |__VERIFIER_assert__cond___15':143:161:168:337:461:569|
                                          -1) 0))
                            (or (not (and (<= (- |K:158:159:166:335:459:567|) 0)
                                            (<= |K:158:159:166:335:459:567| 0)))
                                  (= (+ |main____CPAchecker_TMP_0':141:162:169:338:462:570|
                                          (- |havoc:3:58:557|)) 0))
                            (or (not (<= (+ (- |K:158:159:166:335:459:567|) 1) 0))
                                  (= |main____CPAchecker_TMP_0':141:162:169:338:462:570| 0))
                            (or (not (and (<= (- |K:158:159:166:335:459:567|) 0)
                                            (<= |K:158:159:166:335:459:567| 0)))
                                  (= (+ |__tmp_383_0':139:163:170:339:463:571|
                                          (- |havoc:3:58:557|)) 0))
                            (or (not (<= (+ (- |K:158:159:166:335:459:567|) 1) 0))
                                  (= |__tmp_383_0':139:163:170:339:463:571| 0))
                            (or (not (and (<= (- |K:158:159:166:335:459:567|) 0)
                                            (<= |K:158:159:166:335:459:567| 0)))
                                  (= (+ |__VERIFIER_assert__cond___16':144:164:171:340:464:572|
                                          (- __VERIFIER_assert__cond___16)) 0))
                            (or (not (<= (+ (- |K:158:159:166:335:459:567|) 1) 0))
                                  (= (+ |__VERIFIER_assert__cond___16':144:164:171:340:464:572|
                                          -1) 0))
                            (or (not (and (<= (- |K:158:159:166:335:459:567|) 0)
                                            (<= |K:158:159:166:335:459:567| 0)))
                                  (= (+ |main____CPAchecker_TMP_0___0':142:165:172:341:465:573|
                                          (- main____CPAchecker_TMP_0___0)) 0))
                            (or (not (<= (+ (- |K:158:159:166:335:459:567|) 1) 0))
                                  (= |main____CPAchecker_TMP_0___0':142:165:172:341:465:573| 0))
                            (or (and (= |K:158:159:166:335:459:567| 0)
                                       (= (+ (- |__VERIFIER_assert__cond___16':144:164:171:340:464:572|)
                                               __VERIFIER_assert__cond___16) 0)
                                       (= (+ (- |__VERIFIER_assert__cond___15':143:161:168:337:461:569|)
                                               __VERIFIER_assert__cond___15) 0)
                                       (= (+ (- |main____CPAchecker_TMP_0___0':142:165:172:341:465:573|)
                                               main____CPAchecker_TMP_0___0) 0)
                                       (= (+ (- |main____CPAchecker_TMP_0':141:162:169:338:462:570|)
                                               |havoc:3:58:557|) 0)
                                       (= (- |main__t':140:160:167:336:460:568|) 0)
                                       (= (+ (- |__tmp_383_0':139:163:170:339:463:571|)
                                               |havoc:3:58:557|) 0))
                                  (and (<= (+ (- |K:158:159:166:335:459:567|)
                                                1) 0) (= |havoc:3:58:557| 0)
                                         (= |havoc:3:58:557| 0)
                                         (<= (+ (- havoc) 3) 0)
                                         (= (+ |__VERIFIER_assert__cond___16':144:164:171:340:464:572|
                                                 -1) 0)
                                         (= (+ |__VERIFIER_assert__cond___15':143:161:168:337:461:569|
                                                 -1) 0)
                                         (= |main____CPAchecker_TMP_0':141:162:169:338:462:570| 0)
                                         (= |main____CPAchecker_TMP_0___0':142:165:172:341:465:573| 0)
                                         (= |__tmp_383_0':139:163:170:339:463:571| 0)
                                         (<= (+ |main__t':140:160:167:336:460:568|
                                                  (- havoc) 2) 0)
                                         (<= (+ (- |main__t':140:160:167:336:460:568|)
                                                  1) 0)))
                            (<= (- |K:158:159:166:335:459:567|) 0)
                            (= |__tmp_383_0':139:163:170:339:463:571| 0)
                            (= |main____CPAchecker_TMP_0':141:162:169:338:462:570| 0)
                            (<= (- |main__t':140:160:167:336:460:568|) 0)
                            (< (+ (- havoc) 1) 0)
                            (= |__tmp_383_0':139:163:170:339:463:571| 0)
                            (= |main____CPAchecker_TMP_0':141:162:169:338:462:570| 0)
                            (not (= (+ |main__t':140:160:167:336:460:568|
                                         (- havoc) 2) 0))
                            (not (= |havoc:9:59:138:334:342:466:574| 0))
                            (= (+ |__tmp_383_0':139:163:170:339:463:571|
                                    (- |phi___tmp_383_0:351:450:558|)) 0)
                            (= (+ |havoc:9:59:138:334:342:466:574|
                                    (- |phi___tmp_247_0:350:451:559|)) 0)
                            (= (+ |main__t':140:160:167:336:460:568|
                                    (- |phi_main__t:349:452:560|) 1) 0)
                            (= (+ |__tmp_383_0':139:163:170:339:463:571|
                                    (- |phi_main____CPAchecker_TMP_0:348:453:561|)) 0)
                            (= (+ (- |phi___VERIFIER_assert__cond___11:347:454:562|)
                                    1) 0)
                            (= (+ (ite (<= (+ (- havoc) 1) 0) 1 0)
                                    (- |phi___VERIFIER_assert__cond___12:346:455:563|)) 0)
                            (= (+ |havoc:9:59:138:334:342:466:574|
                                    (- |phi_main____CPAchecker_TMP_0___0:345:456:564|)) 0)
                            (= (+ |__VERIFIER_assert__cond___15':143:161:168:337:461:569|
                                    (- |phi___VERIFIER_assert__cond___15:344:457:565|)) 0)
                            (= (+ |__VERIFIER_assert__cond___16':144:164:171:340:464:572|
                                    (- |phi___VERIFIER_assert__cond___16:343:458:566|)) 0)))
               (not (= (ite (<= (- |phi_main__t:349:452:560|) 0) 1 0) 0))
               (not (= (ite (<= (+ |phi_main__t:349:452:560| (- havoc) 1) 0)
                            1 0) 0))
               (or (not (and (<= (- |K:313:314:323:537:575|) 0)
                               (<= |K:313:314:323:537:575| 0)))
                     (= (+ (- __VERIFIER_assert__cond___7)
                             |__VERIFIER_assert__cond___7':299:315:324:538:576|) 0))
               (or (not (<= (+ (- |K:313:314:323:537:575|) 1) 0))
                     (= (+ |__VERIFIER_assert__cond___7':299:315:324:538:576|
                             -1) 0))
               (or (not (and (<= (- |K:313:314:323:537:575|) 0)
                               (<= |K:313:314:323:537:575| 0)))
                     (= (+ (- __VERIFIER_assert__cond___8)
                             |__VERIFIER_assert__cond___8':300:316:325:539:577|) 0))
               (or (not (<= (+ (- |K:313:314:323:537:575|) 1) 0))
                     (= (+ |__VERIFIER_assert__cond___8':300:316:325:539:577|
                             -1) 0))
               (or (not (<= (- |K:313:314:323:537:575|) 0))
                     (<= (+ |main__t':140:317:326:540:578|
                              (* -2 |K:313:314:323:537:575|)
                              (- |phi_main__t:349:452:560|) -1) 0))
               (or (not (<= (- |K:313:314:323:537:575|) 0))
                     (<= (+ |main__t':140:317:326:540:578|
                              (* 2 |K:313:314:323:537:575|)
                              (- |phi_main__t:349:452:560|)
                              (- (* |K:313:314:323:537:575| havoc)) -1) 0))
               (or (not (<= (- |K:313:314:323:537:575|) 0))
                     (<= (+ (- |main__t':140:317:326:540:578|)
                              |K:313:314:323:537:575|
                              |phi_main__t:349:452:560| 1) 0))
               (or (and (= |K:313:314:323:537:575| 0)
                          (= (+ (- |main____CPAchecker_TMP_6':301:318:327:541:579|)
                                  main____CPAchecker_TMP_6) 0)
                          (= (+ __VERIFIER_assert__cond___8
                                  (- |__VERIFIER_assert__cond___8':300:316:325:539:577|)) 0)
                          (= (+ __VERIFIER_assert__cond___7
                                  (- |__VERIFIER_assert__cond___7':299:315:324:538:576|)) 0)
                          (= (+ (- |__VERIFIER_assert__cond___4':298:319:328:542:580|)
                                  __VERIFIER_assert__cond___4) 0)
                          (= (+ (- |__VERIFIER_assert__cond___3':297:320:329:543:581|)
                                  __VERIFIER_assert__cond___3) 0)
                          (= (+ (- |main____CPAchecker_TMP_4':296:321:330:544:582|)
                                  main____CPAchecker_TMP_4) 0)
                          (= (+ (- |main____CPAchecker_TMP_3':295:322:331:545:583|)
                                  main____CPAchecker_TMP_3) 0)
                          (= (+ (- |main__t':140:317:326:540:578|)
                                  |phi_main__t:349:452:560| 1) 0))
                     (and (<= (+ (- |K:313:314:323:537:575|) 1) 0)
                            (<= (+ |phi_main__t:349:452:560| (- havoc) 3) 0)
                            (<= (- |phi_main__t:349:452:560|) 0)
                            (= (+ |__VERIFIER_assert__cond___8':300:316:325:539:577|
                                    -1) 0)
                            (= (+ |__VERIFIER_assert__cond___7':299:315:324:538:576|
                                    -1) 0)
                            (<= (+ |main__t':140:317:326:540:578| (- havoc) 1) 0)
                            (<= (+ (- |main__t':140:317:326:540:578|) 2) 0)))
               (<= (- |K:313:314:323:537:575|) 0)
               (< (- |main__t':140:317:326:540:578|) 0) (< (+ (- havoc) 1) 0)
               (not (= (+ |main__t':140:317:326:540:578| (- havoc) 1) 0))
               (or (and (not (= |havoc:24:60:273:546:584| 0))
                          (or (and (= |havoc:31:62:285:547:585| 0)
                                     (= (+ (- |phi_main__t:276:277:286:548:586|)
                                             |main__t':140:317:326:540:578|) 0)
                                     (= (+ (- |phi___VERIFIER_assert__cond___3:275:278:287:549:587|)
                                             |__VERIFIER_assert__cond___3':297:320:329:543:581|) 0)
                                     (= (+ (- |phi___VERIFIER_assert__cond___4:274:279:288:550:588|)
                                             |__VERIFIER_assert__cond___4':298:319:328:542:580|) 0))
                                (and (not (= |havoc:31:62:285:547:585| 0))
                                       (not (= (ite (<= (- |main__t':140:317:326:540:578|) 0)
                                                    1 0) 0))
                                       (not (= (ite (<= (+ |main__t':140:317:326:540:578|
                                                             (- havoc) 1) 0)
                                                    1 0) 0))
                                       (not (= (+ |main__t':140:317:326:540:578|
                                                    (- havoc) 2) 0))
                                       (= (+ (- |phi_main__t:276:277:286:548:586|)
                                               |main__t':140:317:326:540:578|
                                               1) 0)
                                       (= (+ (ite (<= (- |main__t':140:317:326:540:578|) 0)
                                                  1 0)
                                               (- |phi___VERIFIER_assert__cond___3:275:278:287:549:587|)) 0)
                                       (= (+ (ite (<= (+ |main__t':140:317:326:540:578|
                                                           (- havoc) 1) 0)
                                                  1 0)
                                               (- |phi___VERIFIER_assert__cond___4:274:279:288:550:588|)) 0)))
                          (= (+ (- |phi_main__t:284:289:551:589|)
                                  |phi_main__t:276:277:286:548:586|) 0)
                          (= (+ (- |phi_main____CPAchecker_TMP_4:283:290:552:590|)
                                  |havoc:31:62:285:547:585|) 0)
                          (= (+ (- |phi___VERIFIER_assert__cond___3:282:291:553:591|)
                                  |phi___VERIFIER_assert__cond___3:275:278:287:549:587|) 0)
                          (= (+ (- |phi___VERIFIER_assert__cond___4:281:292:554:592|)
                                  |phi___VERIFIER_assert__cond___4:274:279:288:550:588|) 0)
                          (= (+ (- |phi_main____CPAchecker_TMP_6:280:293:555:593|)
                                  |main____CPAchecker_TMP_6':301:318:327:541:579|) 0))
                     (and (= |havoc:24:60:273:546:584| 0)
                            (= |havoc:25:61:294:556:594| 0)
                            (= (+ (- |phi_main__t:284:289:551:589|)
                                    |main__t':140:317:326:540:578|) 0)
                            (= (+ (- |phi_main____CPAchecker_TMP_4:283:290:552:590|)
                                    |main____CPAchecker_TMP_4':296:321:330:544:582|) 0)
                            (= (+ (- |phi___VERIFIER_assert__cond___3:282:291:553:591|)
                                    |__VERIFIER_assert__cond___3':297:320:329:543:581|) 0)
                            (= (+ (- |phi___VERIFIER_assert__cond___4:281:292:554:592|)
                                    |__VERIFIER_assert__cond___4':298:319:328:542:580|) 0)
                            (= (+ |havoc:25:61:294:556:594|
                                    (- |phi_main____CPAchecker_TMP_6:280:293:555:593|)) 0)))
               (not (= (ite (<= (- |phi_main__t:284:289:551:589|) 0) 1 0) 0))
               (= (ite (<= (+ |phi_main__t:284:289:551:589| (- havoc) 1) 0) 1
                       0) 0)))
(check-sat)
